500
1000
266
266
266
266
265
263
263
261
261
261
260
260
260
260
259
259
259
258
257
257
257
257
256
256
256
255
255
254
253
253
253
253
253
252
252
251
250
249
249
249
249
247
247
246
246
245
245
244
244
244
243
242
242
240
240
240
239
239
239
239
238
237
237
237
236
236
236
235
235
234
234
234
234
234
233
233
233
232
232
232
230
230
229
229
227
227
227
227
226
226
226
226
224
224
224
224
223
223
223
223
223
222
222
221
221
220
219
219
219
218
218
218
217
217
217
216
216
216
215
214
214
214
213
213
211
210
210
209
209
209
208
208
207
206
206
206
205
205
203
203
203
203
202
202
201
201
200
199
199
199
197
197
197
196
195
195
193
192
192
192
191
191
191
190
190
189
188
187
185
185
185
184
184
183
183
182
182
182
182
182
181
181
181
181
181
180
180
180
180
180
180
179
179
178
177
177
176
176
176
174
173
173
172
172
171
171
170
170
170
169
169
169
168
168
168
167
165
164
164
164
162
162
162
162
162
161
160
158
157
156
156
155
155
154
153
152
152
150
150
150
149
149
149
146
146
146
146
145
145
144
144
144
143
142
142
142
141
139
138
138
138
138
137
135
134
134
134
133
132
132
132
131
131
131
131
131
131
130
128
128
127
127
125
125
125
122
122
122
122
122
122
121
121
120
120
120
120
120
120
119
119
119
118
118
118
117
117
116
116
116
115
114
114
114
113
112
111
111
111
110
110
109
108
108
107
105
105
104
101
101
101
101
100
100
100
100
100
100
99
97
97
97
96
95
95
93
91
91
91
90
90
90
89
89
89
88
87
87
86
86
85
85
84
81
81
80
79
79
77
77
77
76
76
76
75
75
74
74
73
73
72
72
72
71
71
70
70
69
69
69
68
68
68
68
68
67
67
66
66
66
66
66
66
66
66
65
65
64
64
64
63
62
62
61
59
59
58
57
57
57
57
56
56
55
55
54
54
53
53
53
53
53
52
52
51
51
51
51
51
50
49
49
49
49
49
47
47
47
46
46
45
42
41
41
40
39
37
37
37
37
36
36
36
34
34
34
33
33
33
33
32
32
31
30
29
29
27
27
26
26
25
25
25
23
23
22
22
22
21
21
21
20
20
19
19
19
18
17
16
16
